p cnf 163 905
1 2 3 4 5 0
-1 -6 0
-1 -11 0
-1 -16 0
-1 -21 0
-2 -1 0
-2 -7 0
-2 -12 0
-2 -17 0
-2 -22 0
-3 -1 0
-3 -2 0
-3 -8 0
-3 -13 0
-3 -18 0
-3 -23 0
-4 -1 0
-4 -2 0
-4 -3 0
-4 -9 0
-4 -14 0
-4 -19 0
-4 -24 0
-5 -1 0
-5 -2 0
-5 -3 0
-5 -4 0
-5 -10 0
-5 -15 0
-5 -20 0
-5 -25 0
6 7 8 9 10 0
-6 -1 0
-6 -11 0
-6 -16 0
-6 -21 0
-7 -6 0
-7 -2 0
-7 -12 0
-7 -17 0
-7 -22 0
-8 -6 0
-8 -7 0
-8 -3 0
-8 -13 0
-8 -18 0
-8 -23 0
-9 -6 0
-9 -7 0
-9 -8 0
-9 -4 0
-9 -14 0
-9 -19 0
-9 -24 0
-10 -6 0
-10 -7 0
-10 -8 0
-10 -9 0
-10 -5 0
-10 -15 0
-10 -20 0
-10 -25 0
11 12 13 14 15 0
-11 -1 0
-11 -6 0
-11 -16 0
-11 -21 0
-12 -11 0
-12 -2 0
-12 -7 0
-12 -17 0
-12 -22 0
-13 -11 0
-13 -12 0
-13 -3 0
-13 -8 0
-13 -18 0
-13 -23 0
-14 -11 0
-14 -12 0
-14 -13 0
-14 -4 0
-14 -9 0
-14 -19 0
-14 -24 0
-15 -11 0
-15 -12 0
-15 -13 0
-15 -14 0
-15 -5 0
-15 -10 0
-15 -20 0
-15 -25 0
16 17 18 19 20 0
-16 -1 0
-16 -6 0
-16 -11 0
-16 -21 0
-17 -16 0
-17 -2 0
-17 -7 0
-17 -12 0
-17 -22 0
-18 -16 0
-18 -17 0
-18 -3 0
-18 -8 0
-18 -13 0
-18 -23 0
-19 -16 0
-19 -17 0
-19 -18 0
-19 -4 0
-19 -9 0
-19 -14 0
-19 -24 0
-20 -16 0
-20 -17 0
-20 -18 0
-20 -19 0
-20 -5 0
-20 -10 0
-20 -15 0
-20 -25 0
21 22 23 24 25 0
-21 -1 0
-21 -6 0
-21 -11 0
-21 -16 0
-22 -21 0
-22 -2 0
-22 -7 0
-22 -12 0
-22 -17 0
-23 -21 0
-23 -22 0
-23 -3 0
-23 -8 0
-23 -13 0
-23 -18 0
-24 -21 0
-24 -22 0
-24 -23 0
-24 -4 0
-24 -9 0
-24 -14 0
-24 -19 0
-25 -21 0
-25 -22 0
-25 -23 0
-25 -24 0
-25 -5 0
-25 -10 0
-25 -15 0
-25 -20 0
1 2 3 4 5  0
-26 -31 0
-26 -36 0
-26 -41 0
-26 -46 0
-27 -26 0
-27 -32 0
-27 -37 0
-27 -42 0
-27 -47 0
-28 -26 0
-28 -27 0
-28 -33 0
-28 -38 0
-28 -43 0
-28 -48 0
-29 -26 0
-29 -27 0
-29 -28 0
-29 -34 0
-29 -39 0
-29 -44 0
-29 -49 0
-30 -26 0
-30 -27 0
-30 -28 0
-30 -29 0
-30 -35 0
-30 -40 0
-30 -45 0
-30 -50 0
6 7 8 9 10  0
-31 -26 0
-31 -36 0
-31 -41 0
-31 -46 0
-32 -31 0
-32 -27 0
-32 -37 0
-32 -42 0
-32 -47 0
-33 -31 0
-33 -32 0
-33 -28 0
-33 -38 0
-33 -43 0
-33 -48 0
-34 -31 0
-34 -32 0
-34 -33 0
-34 -29 0
-34 -39 0
-34 -44 0
-34 -49 0
-35 -31 0
-35 -32 0
-35 -33 0
-35 -34 0
-35 -30 0
-35 -40 0
-35 -45 0
-35 -50 0
11 12 13 14 15  0
-36 -26 0
-36 -31 0
-36 -41 0
-36 -46 0
-37 -36 0
-37 -27 0
-37 -32 0
-37 -42 0
-37 -47 0
-38 -36 0
-38 -37 0
-38 -28 0
-38 -33 0
-38 -43 0
-38 -48 0
-39 -36 0
-39 -37 0
-39 -38 0
-39 -29 0
-39 -34 0
-39 -44 0
-39 -49 0
-40 -36 0
-40 -37 0
-40 -38 0
-40 -39 0
-40 -30 0
-40 -35 0
-40 -45 0
-40 -50 0
16 17 18 19 20  0
-41 -26 0
-41 -31 0
-41 -36 0
-41 -46 0
-42 -41 0
-42 -27 0
-42 -32 0
-42 -37 0
-42 -47 0
-43 -41 0
-43 -42 0
-43 -28 0
-43 -33 0
-43 -38 0
-43 -48 0
-44 -41 0
-44 -42 0
-44 -43 0
-44 -29 0
-44 -34 0
-44 -39 0
-44 -49 0
-45 -41 0
-45 -42 0
-45 -43 0
-45 -44 0
-45 -30 0
-45 -35 0
-45 -40 0
-45 -50 0
21 22 23 24 25  0
-46 -26 0
-46 -31 0
-46 -36 0
-46 -41 0
-47 -46 0
-47 -27 0
-47 -32 0
-47 -37 0
-47 -42 0
-48 -46 0
-48 -47 0
-48 -28 0
-48 -33 0
-48 -38 0
-48 -43 0
-49 -46 0
-49 -47 0
-49 -48 0
-49 -29 0
-49 -34 0
-49 -39 0
-49 -44 0
-50 -46 0
-50 -47 0
-50 -48 0
-50 -49 0
-50 -30 0
-50 -35 0
-50 -40 0
-50 -45 0
1 2 3 4 5  0
-51 -56 0
-51 -61 0
-51 -66 0
-51 -71 0
-52 -51 0
-52 -57 0
-52 -62 0
-52 -67 0
-52 -72 0
-53 -51 0
-53 -52 0
-53 -58 0
-53 -63 0
-53 -68 0
-53 -73 0
-54 -51 0
-54 -52 0
-54 -53 0
-54 -59 0
-54 -64 0
-54 -69 0
-54 -74 0
-55 -51 0
-55 -52 0
-55 -53 0
-55 -54 0
-55 -60 0
-55 -65 0
-55 -70 0
-55 -75 0
6 7 8 9 10  0
-56 -51 0
-56 -61 0
-56 -66 0
-56 -71 0
-57 -56 0
-57 -52 0
-57 -62 0
-57 -67 0
-57 -72 0
-58 -56 0
-58 -57 0
-58 -53 0
-58 -63 0
-58 -68 0
-58 -73 0
-59 -56 0
-59 -57 0
-59 -58 0
-59 -54 0
-59 -64 0
-59 -69 0
-59 -74 0
-60 -56 0
-60 -57 0
-60 -58 0
-60 -59 0
-60 -55 0
-60 -65 0
-60 -70 0
-60 -75 0
11 12 13 14 15  0
-61 -51 0
-61 -56 0
-61 -66 0
-61 -71 0
-62 -61 0
-62 -52 0
-62 -57 0
-62 -67 0
-62 -72 0
-63 -61 0
-63 -62 0
-63 -53 0
-63 -58 0
-63 -68 0
-63 -73 0
-64 -61 0
-64 -62 0
-64 -63 0
-64 -54 0
-64 -59 0
-64 -69 0
-64 -74 0
-65 -61 0
-65 -62 0
-65 -63 0
-65 -64 0
-65 -55 0
-65 -60 0
-65 -70 0
-65 -75 0
16 17 18 19 20  0
-66 -51 0
-66 -56 0
-66 -61 0
-66 -71 0
-67 -66 0
-67 -52 0
-67 -57 0
-67 -62 0
-67 -72 0
-68 -66 0
-68 -67 0
-68 -53 0
-68 -58 0
-68 -63 0
-68 -73 0
-69 -66 0
-69 -67 0
-69 -68 0
-69 -54 0
-69 -59 0
-69 -64 0
-69 -74 0
-70 -66 0
-70 -67 0
-70 -68 0
-70 -69 0
-70 -55 0
-70 -60 0
-70 -65 0
-70 -75 0
21 22 23 24 25  0
-71 -51 0
-71 -56 0
-71 -61 0
-71 -66 0
-72 -71 0
-72 -52 0
-72 -57 0
-72 -62 0
-72 -67 0
-73 -71 0
-73 -72 0
-73 -53 0
-73 -58 0
-73 -63 0
-73 -68 0
-74 -71 0
-74 -72 0
-74 -73 0
-74 -54 0
-74 -59 0
-74 -64 0
-74 -69 0
-75 -71 0
-75 -72 0
-75 -73 0
-75 -74 0
-75 -55 0
-75 -60 0
-75 -65 0
-75 -70 0
1 2 3 4 5  0
-76 -81 0
-76 -86 0
-76 -91 0
-76 -96 0
-77 -76 0
-77 -82 0
-77 -87 0
-77 -92 0
-77 -97 0
-78 -76 0
-78 -77 0
-78 -83 0
-78 -88 0
-78 -93 0
-78 -98 0
-79 -76 0
-79 -77 0
-79 -78 0
-79 -84 0
-79 -89 0
-79 -94 0
-79 -99 0
-80 -76 0
-80 -77 0
-80 -78 0
-80 -79 0
-80 -85 0
-80 -90 0
-80 -95 0
-80 -100 0
6 7 8 9 10  0
-81 -76 0
-81 -86 0
-81 -91 0
-81 -96 0
-82 -81 0
-82 -77 0
-82 -87 0
-82 -92 0
-82 -97 0
-83 -81 0
-83 -82 0
-83 -78 0
-83 -88 0
-83 -93 0
-83 -98 0
-84 -81 0
-84 -82 0
-84 -83 0
-84 -79 0
-84 -89 0
-84 -94 0
-84 -99 0
-85 -81 0
-85 -82 0
-85 -83 0
-85 -84 0
-85 -80 0
-85 -90 0
-85 -95 0
-85 -100 0
11 12 13 14 15  0
-86 -76 0
-86 -81 0
-86 -91 0
-86 -96 0
-87 -86 0
-87 -77 0
-87 -82 0
-87 -92 0
-87 -97 0
-88 -86 0
-88 -87 0
-88 -78 0
-88 -83 0
-88 -93 0
-88 -98 0
-89 -86 0
-89 -87 0
-89 -88 0
-89 -79 0
-89 -84 0
-89 -94 0
-89 -99 0
-90 -86 0
-90 -87 0
-90 -88 0
-90 -89 0
-90 -80 0
-90 -85 0
-90 -95 0
-90 -100 0
16 17 18 19 20  0
-91 -76 0
-91 -81 0
-91 -86 0
-91 -96 0
-92 -91 0
-92 -77 0
-92 -82 0
-92 -87 0
-92 -97 0
-93 -91 0
-93 -92 0
-93 -78 0
-93 -83 0
-93 -88 0
-93 -98 0
-94 -91 0
-94 -92 0
-94 -93 0
-94 -79 0
-94 -84 0
-94 -89 0
-94 -99 0
-95 -91 0
-95 -92 0
-95 -93 0
-95 -94 0
-95 -80 0
-95 -85 0
-95 -90 0
-95 -100 0
21 22 23 24 25  0
-96 -76 0
-96 -81 0
-96 -86 0
-96 -91 0
-97 -96 0
-97 -77 0
-97 -82 0
-97 -87 0
-97 -92 0
-98 -96 0
-98 -97 0
-98 -78 0
-98 -83 0
-98 -88 0
-98 -93 0
-99 -96 0
-99 -97 0
-99 -98 0
-99 -79 0
-99 -84 0
-99 -89 0
-99 -94 0
-100 -96 0
-100 -97 0
-100 -98 0
-100 -99 0
-100 -80 0
-100 -85 0
-100 -90 0
-100 -95 0
1 2 3 4 5  0
-101 -106 0
-101 -111 0
-101 -116 0
-101 -121 0
-102 -101 0
-102 -107 0
-102 -112 0
-102 -117 0
-102 -122 0
-103 -101 0
-103 -102 0
-103 -108 0
-103 -113 0
-103 -118 0
-103 -123 0
-104 -101 0
-104 -102 0
-104 -103 0
-104 -109 0
-104 -114 0
-104 -119 0
-104 -124 0
-105 -101 0
-105 -102 0
-105 -103 0
-105 -104 0
-105 -110 0
-105 -115 0
-105 -120 0
-105 -125 0
6 7 8 9 10  0
-106 -101 0
-106 -111 0
-106 -116 0
-106 -121 0
-107 -106 0
-107 -102 0
-107 -112 0
-107 -117 0
-107 -122 0
-108 -106 0
-108 -107 0
-108 -103 0
-108 -113 0
-108 -118 0
-108 -123 0
-109 -106 0
-109 -107 0
-109 -108 0
-109 -104 0
-109 -114 0
-109 -119 0
-109 -124 0
-110 -106 0
-110 -107 0
-110 -108 0
-110 -109 0
-110 -105 0
-110 -115 0
-110 -120 0
-110 -125 0
11 12 13 14 15  0
-111 -101 0
-111 -106 0
-111 -116 0
-111 -121 0
-112 -111 0
-112 -102 0
-112 -107 0
-112 -117 0
-112 -122 0
-113 -111 0
-113 -112 0
-113 -103 0
-113 -108 0
-113 -118 0
-113 -123 0
-114 -111 0
-114 -112 0
-114 -113 0
-114 -104 0
-114 -109 0
-114 -119 0
-114 -124 0
-115 -111 0
-115 -112 0
-115 -113 0
-115 -114 0
-115 -105 0
-115 -110 0
-115 -120 0
-115 -125 0
16 17 18 19 20  0
-116 -101 0
-116 -106 0
-116 -111 0
-116 -121 0
-117 -116 0
-117 -102 0
-117 -107 0
-117 -112 0
-117 -122 0
-118 -116 0
-118 -117 0
-118 -103 0
-118 -108 0
-118 -113 0
-118 -123 0
-119 -116 0
-119 -117 0
-119 -118 0
-119 -104 0
-119 -109 0
-119 -114 0
-119 -124 0
-120 -116 0
-120 -117 0
-120 -118 0
-120 -119 0
-120 -105 0
-120 -110 0
-120 -115 0
-120 -125 0
21 22 23 24 25  0
-121 -101 0
-121 -106 0
-121 -111 0
-121 -116 0
-122 -121 0
-122 -102 0
-122 -107 0
-122 -112 0
-122 -117 0
-123 -121 0
-123 -122 0
-123 -103 0
-123 -108 0
-123 -113 0
-123 -118 0
-124 -121 0
-124 -122 0
-124 -123 0
-124 -104 0
-124 -109 0
-124 -114 0
-124 -119 0
-125 -121 0
-125 -122 0
-125 -123 0
-125 -124 0
-125 -105 0
-125 -110 0
-125 -115 0
-125 -120 0
-1 26 0
1 -26 0
-6 51 0
6 -51 0
-11 76 0
11 -76 0
-140 -136 0
-141 -137 0
-142 -138 0
-143 -139 0
-31 81 0
31 -81 0
-101 56 0
101 -56 0
-41 106 0
41 -106 0
-2 27 0
2 -27 0
-7 52 0
7 -52 0
-12 77 0
12 -77 0
-140 -136 0
-141 -137 0
-142 -138 0
-143 -139 0
-32 82 0
32 -82 0
-102 57 0
102 -57 0
-42 107 0
42 -107 0
-3 28 0
3 -28 0
-8 53 0
8 -53 0
-13 78 0
13 -78 0
-140 -136 0
-141 -137 0
-142 -138 0
-143 -139 0
-33 83 0
33 -83 0
-103 58 0
103 -58 0
-43 108 0
43 -108 0
-4 29 0
4 -29 0
-9 54 0
9 -54 0
-14 79 0
14 -79 0
-140 -136 0
-141 -137 0
-142 -138 0
-143 -139 0
-34 84 0
34 -84 0
-104 59 0
104 -59 0
-44 109 0
44 -109 0
-5 30 0
5 -30 0
-10 55 0
10 -55 0
-15 80 0
15 -80 0
-140 -136 0
-141 -137 0
-142 -138 0
-143 -139 0
-35 85 0
35 -85 0
-105 60 0
105 -60 0
-45 110 0
45 -110 0
192  0
120  0
-215 166 0
-216 167 0
-217 168 0
-218 169 0
-170 211 0
-171 212 0
-172 213 0
-173 214 0
-171 210 0
-172 211 0
-173 212 0
-174 213 0
-116 91 0
116 -91 0
-21 121 0
21 -121 0
-117 92 0
117 -92 0
-22 122 0
22 -122 0
-118 93 0
118 -93 0
-23 123 0
23 -123 0
-119 94 0
119 -94 0
-24 124 0
24 -124 0
-120 95 0
120 -95 0
-25 125 0
25 -125 0
120 151 0
121 152 0
122 153 0
123 154 0
121 150 0
122 151 0
123 152 0
124 153 0
-215 201 0
-216 202 0
-217 203 0
-218 204 0
-216 200 0
-217 201 0
-218 202 0
-219 203 0